tsp_instances/TSP20/instance106.tsp
NODE_COORD_SECTION
0 36 153
1 52 127
2 99 164
3 91 186
4 4 183
5 117 173
6 98 199
7 118 132
8 93 143
9 192 39
10 24 131
11 196 137
12 103 82
13 76 121
14 117 87
15 47 178
16 99 162
17 29 54
18 100 4
19 145 192
