tsp_instances/TSP20/instance106.opt.tour
TOUR_SECTION
1
5
16
7
4
3
17
6
20
12
10
19
18
13
15
8
9
14
2
11
-1